
(set-logic ALL) 

(declare-datatype MyList ((Nil) (Cons (head Real) (tail MyList)) )) 
(declare-fun l0 () MyList) 
(declare-fun l1 () MyList) 
(declare-fun l2 () MyList) 
(declare-fun l3 () MyList) 
(declare-fun i0 () Real) 
(declare-fun i1 () Real) 
(assert (= l1 Nil) )
(assert (and (= l1 Nil) (= l3 Nil) (is-Cons Nil)) )
(assert (is-Cons l0) )
(assert (is-Nil l0) )
(assert (is-Nil l3) )
(assert (or (is-Cons Nil) (= l1 l1)) )
(assert (and (= l1 Nil) (is-Nil Nil)) )
(assert (or (= l2 Nil) (= l2 l2)) )
(check-sat)
